c description: Random 3-CNF over 17 variables and 72 clauses
c generator: CNFgen (0.9.2)
c copyright: (C) 2012-2022 Massimo Lauria <massimo.lauria@uniroma1.it>
c url: https://massimolauria.net/cnfgen
c command line: cnfgen --output CNF_4.28/17_bit_72_854.cnf randkcnf 3 17 72
c
p cnf 17 72
-13 14 17 0
-7 -13 -14 0
-5 -10 -15 0
6 9 -14 0
12 14 -15 0
-3 -4 15 0
1 6 16 0
-9 -13 -14 0
3 -14 -15 0
2 4 16 0
10 -13 -14 0
-2 -6 7 0
-6 -8 -17 0
-2 -5 8 0
-2 8 -15 0
-1 16 17 0
5 -12 -13 0
4 11 -15 0
7 -8 -16 0
-6 11 -15 0
7 -11 -14 0
11 12 -14 0
-8 10 12 0
5 8 -11 0
-2 -13 -17 0
-1 7 14 0
10 13 -16 0
6 -11 -17 0
-1 -4 10 0
-2 -7 -13 0
2 -6 -12 0
-4 5 12 0
-3 -8 12 0
-3 7 -15 0
4 11 -12 0
7 -11 16 0
-8 -12 14 0
13 16 -17 0
1 -9 -16 0
-3 10 -17 0
1 4 -16 0
5 6 10 0
-2 10 16 0
-3 -11 12 0
4 -10 -13 0
-5 -15 -17 0
-10 -15 -16 0
9 -10 -12 0
10 14 17 0
5 13 -14 0
1 -6 13 0
4 7 13 0
1 -12 15 0
10 -15 17 0
-5 -13 -15 0
-1 4 -10 0
11 12 17 0
-5 -10 13 0
-1 6 -9 0
1 -11 -12 0
-1 -5 -12 0
-1 9 -15 0
-7 -11 14 0
4 5 -17 0
-6 -12 -16 0
7 9 -16 0
1 5 7 0
1 -5 10 0
2 5 8 0
6 -8 -16 0
8 -9 -17 0
-5 11 12 0
